NAME: tsp45_28
COMMENT: 45-tsp problem (Padberg/Rinaldi)
TYPE: TSP
DIMENSION: 45
EDGE_WEIGHT_TYPE : EUC_2D
NODE_COORD_SECTION
1 29 8
2 33 17
3 1 27
4 31 15
5 24 23
6 7 5
7 24 27
8 1 34
9 15 34
10 36 36
11 5 2
12 18 9
13 27 20
14 11 7
15 4 25
16 29 21
17 36 27
18 2 26
19 15 37
20 28 22
21 16 24
22 13 1
23 3 10
24 22 16
25 19 7
26 4 3
27 17 13
28 26 27
29 4 12
30 0 32
31 15 19
32 1 38
33 14 17
34 26 10
35 3 22
36 12 34
37 28 19
38 39 2
39 24 3
40 32 31
41 25 16
42 35 12
43 35 11
44 8 2
45 19 34
